3 24 1 10
9 20 3 2 3 15 1 13 5 9 5 4 11 8 12 6 17 13 10 20 18 18 8 13 
11.91 10.73 8.84 14.35 9.98 10.91 4.33 7.86 15 12 12.31 3.84 2.33 0.16 8.6 1.33 15.93 8.08 0.78 7.89 4.85 10.22 11.85 9.2 
8 8 8 8 8 8 8 8 8 8 8 8 8 8 8 8 8 8 8 8 8 8 8 8 
0.63 1.2 11.95 6.34 9.17 6.18 11.71 5.42 8.81 8.43 15.03 8.53 5.54 8.62 9.19 11.49 0.81 6.55 8.85 9.61 6.71 0.57 15.73 6.62 
1 1 1 1 1 1 1 1 1 1 1 1 1 1 1 1 1 1 1 1 1 1 1 1 
1 1 1 1 1 1 1 1 1 1 1 1 1 1 1 1 1 1 1 1 1 1 1 1 
1 1 1 1 1 1 1 1 1 1 1 1 1 1 1 1 1 1 1 1 1 1 1 1 
0.01 0.01 0.01 0.01 0.01 0.01 0.01 0.01 0.01 0.01 0.01 0.01 0.01 0.01 0.01 0.01 0.01 0.01 0.01 0.01 0.01 0.01 0.01 0.01 
0.02 0.02 0.02 0.02 0.02 0.02 0.02 0.02 0.02 0.02 0.02 0.02 0.02 0.02 0.02 0.02 0.02 0.02 0.02 0.02 0.02 0.02 0.02 0.02 
1 1 1 1 1 1 1 1 1 1 1 1 1 1 1 1 1 1 1 1 1 1 1 1 
